instances/shortest_path/discrete/shortest_path_5_1.kp
95951
100

[1.135397064162378 0.24431951557271347 2.6382138370250074 0.8614667916093208 1.4053185363897145 1.0134399886487087 0.46971403410392826 4.732533342336108 4.212249763092665 0.995454217237264 6.1359438608545185 4.960729380878813 1.1644612614987948 4.332476915303475 3.8272831589121217 5.797182745121689]

[56 57 63 32 53 98 26 100 74 75 36 52 33 97 69 25]
